p cnf 21 30
-5 10 0 
-21 1 0 
-14 1 0 
-19 5 0 
-6 16 0 
-9 11 0 
-5 19 0 
-12 1 4 0 
-11 7 9 0 
-3 13 0 
-18 5 7 0 
-9 13 0 
-1 12 0 
-16 6 8 0 
-1 10 0 
-4 12 0 
-1 14 0 
-10 1 5 0 
-2 15 0 
-7 18 0 
-20 7 0 
-17 3 0 
-7 20 0 
-8 16 0 
-5 18 0 
-15 2 0 
-13 3 9 0 
-1 21 0 
-3 17 0 
-7 11 0 
